51 85 43 67 99 60 61 13 19 52 33 18 4 63 83 56 97 20 27 0 21 57 80 93 17 25 47 92 24 41 23 98 68 11 50 35 40 10 69 1 64 96 89 38 29 42 28 86 82 71 36 31 77 48 55 54 9 75 95 14 76 8 45 59 30 16 22 79 74 26 81 62 44 90 94 66 3 88 12 58 6 15 49 5 78 72 32 87 84 53 39 65 70 34 7 73 91 2 46 37 

